
Log started (V12.10.0.0) Fri Apr  9 06:58:48 2021


Problem 'asset.lp' read.
Read time = 0.01 sec. (0.26 ticks)
New value for default parallel thread count: 1
New value for time limit in seconds: 150
Version identifier: 12.10.0.0 | 2019-11-26 | 843d4de
CPXPARAM_Threads                                 1
CPXPARAM_TimeLimit                               150
Found incumbent of value 0.000000 after 0.00 sec. (0.07 ticks)
Tried aggregator 4 times.
MIP Presolve eliminated 1452 rows and 983 columns.
MIP Presolve modified 2263 coefficients.
Aggregator did 487 substitutions.
Reduced MIP has 564 rows, 663 columns, and 2803 nonzeros.
Reduced MIP has 580 binaries, 54 generals, 0 SOSs, and 0 indicators.
Presolve time = 0.01 sec. (8.81 ticks)
Probing fixed 63 vars, tightened 4 bounds.
Probing time = 0.01 sec. (3.20 ticks)
Cover probing fixed 0 vars, tightened 4 bounds.
Tried aggregator 3 times.
MIP Presolve eliminated 87 rows and 79 columns.
MIP Presolve modified 198 coefficients.
Aggregator did 10 substitutions.
Reduced MIP has 467 rows, 574 columns, and 2300 nonzeros.
Reduced MIP has 500 binaries, 48 generals, 0 SOSs, and 0 indicators.
Presolve time = 0.01 sec. (5.65 ticks)
Probing time = 0.00 sec. (2.45 ticks)
Cover probing fixed 0 vars, tightened 4 bounds.
Tried aggregator 1 time.
Detecting symmetries...
MIP Presolve modified 110 coefficients.
Reduced MIP has 467 rows, 574 columns, and 2299 nonzeros.
Reduced MIP has 500 binaries, 48 generals, 0 SOSs, and 0 indicators.
Presolve time = 0.00 sec. (1.58 ticks)
Probing time = 0.00 sec. (2.43 ticks)
Clique table members: 1623.
MIP emphasis: balance optimality and feasibility.
MIP search method: dynamic search.
Parallel mode: none, using 1 thread.
Root relaxation solution time = 0.01 sec. (4.64 ticks)

        Nodes                                         Cuts/
   Node  Left     Objective  IInf  Best Integer    Best Bound    ItCnt     Gap

*     0+    0                            0.0000      172.0000              --- 
      0     0      103.7669   101        0.0000      103.7669      284     --- 
      0     0       92.6885   101        0.0000     Cuts: 216      475     --- 
      0     0       90.7063   101        0.0000     Cuts: 178      724     --- 
      0     0       90.0689   101        0.0000     Cuts: 140      890     --- 
      0     0       89.3036   101        0.0000     Cuts: 109     1032     --- 
      0     0       89.1724   101        0.0000     Cuts: 124     1102     --- 
Detecting symmetries...
      0     0       88.9430   101        0.0000     Cuts: 110     1204     --- 
      0     0       88.0253   101        0.0000      Cuts: 90     1364     --- 
      0     0       87.3838   101        0.0000      Cuts: 64     1417     --- 
      0     0       87.2831   101        0.0000      Cuts: 79     1463     --- 
      0     0       87.1621   101        0.0000      Cuts: 70     1514     --- 
      0     0       86.9991   101        0.0000      Cuts: 72     1575     --- 
      0     0       86.7743   101        0.0000     Cuts: 104     1696     --- 
      0     0       86.7600   101        0.0000      Cuts: 70     1761     --- 
      0     0       86.6888   101        0.0000      Cuts: 72     1807     --- 
      0     0       86.6793   101        0.0000      Cuts: 72     1861     --- 
*     0+    0                           48.0000       86.6793            80.58%
      0     0       86.6681   101       48.0000      Cuts: 62     1913   80.56%
Detecting symmetries...
      0     2       86.6681   136       48.0000       86.6676     1913   80.56%
Elapsed time = 0.25 sec. (238.25 ticks, tree = 0.01 MB, solutions = 1)
*    70+   51                           52.0000       86.4716            66.29%
*   124    86      integral     0       54.0000       86.1077     7502   59.46%
    167   123       70.0000    75       54.0000       85.1623     9435   57.71%
    349   263       69.0235    68       54.0000       84.3129    16692   56.13%

Performing restart 1

Repeating presolve.
Tried aggregator 2 times.
MIP Presolve eliminated 1 rows and 0 columns.
MIP Presolve modified 422 coefficients.
Aggregator did 2 substitutions.
Reduced MIP has 464 rows, 572 columns, and 1991 nonzeros.
Reduced MIP has 498 binaries, 48 generals, 0 SOSs, and 0 indicators.
Presolve time = 0.00 sec. (2.54 ticks)
Tried aggregator 1 time.
Reduced MIP has 464 rows, 572 columns, and 1991 nonzeros.
Reduced MIP has 498 binaries, 48 generals, 0 SOSs, and 0 indicators.
Presolve time = 0.00 sec. (1.49 ticks)
Represolve time = 0.02 sec. (11.96 ticks)
    500     0       78.9295   135       54.0000     Cuts: 174    22451   46.17%
    500     0       74.8692   135       54.0000     Cuts: 114    22581   38.65%
    500     0       72.3501   135       54.0000     Cuts: 137    22787   33.98%
    500     0       69.6945   135       54.0000      Cuts: 83    22966   29.06%
    500     0       68.8506   135       54.0000     Cuts: 100    23055   27.50%
    500     0       68.5246   135       54.0000      Cuts: 74    23129   26.90%
    500     0       67.9279   135       54.0000      Cuts: 82    23244   25.79%
    500     0       67.5972   135       54.0000      Cuts: 54    23299   25.18%
    500     0       67.4663   135       54.0000      Cuts: 75    23391   24.94%
    500     0       67.1371   135       54.0000      Cuts: 93    23462   24.33%
    500     0       67.0404   135       54.0000      Cuts: 61    23509   24.15%
    500     0       67.0064   135       54.0000      Cuts: 37    23529   24.09%
    500     0       66.8913   135       54.0000      Cuts: 24    23579   23.87%
    500     0       66.8663   135       54.0000      Cuts: 49    23613   23.83%
    500     0       66.8605   135       54.0000      Cuts: 27    23635   23.82%
    500     0       66.7725   135       54.0000      Cuts: 14    23697   23.65%
    500     0       66.6876   135       54.0000      Cuts: 55    23754   23.50%
    500     0       66.5757   135       54.0000      Cuts: 50    23859   23.29%
    500     0       66.5372   135       54.0000      Cuts: 51    23911   23.22%
    500     0       66.5094   135       54.0000      Cuts: 49    23938   23.17%
    500     0       66.4946   135       54.0000      Cuts: 43    23971   23.14%
    500     0       66.4892   135       54.0000      Cuts: 16    23998   23.13%
    500     0       66.3684   135       54.0000      Cuts: 13    24077   22.90%
    500     0       66.0676   135       54.0000      Cuts: 57    24165   22.35%
    500     0       65.9603   135       54.0000      Cuts: 56    24211   22.15%
    500     0       65.9111   135       54.0000      Cuts: 43    24242   22.06%
    500     0       65.8673   135       54.0000      Cuts: 22    24278   21.98%
    500     0       65.8261   135       54.0000      Cuts: 19    24312   21.90%
    500     0       65.7561   135       54.0000      Cuts: 38    24336   21.77%
    500     0       65.7414   135       54.0000      Cuts: 27    24363   21.74%
    500     0       65.7159   135       54.0000      Cuts: 24    24406   21.70%
    500     0       65.6960   135       54.0000      Cuts: 68    24445   21.66%
    500     0       65.6872   135       54.0000      Cuts: 30    24477   21.64%
    500     0       65.6829   135       54.0000      Cuts: 22    24501   21.64%
    500     0       65.6758   135       54.0000      Cuts: 31    24540   21.62%
    500     2       65.6758   124       54.0000       65.6730    24540   21.62%
    509     8       64.3196    77       54.0000       65.6489    25170   21.57%
    540    22       58.7734    61       54.0000       65.1907    26119   20.72%
*   597    45      integral     0       56.0000       63.9658    28471   14.22%
    598    44       62.3688    45       56.0000       62.9537    28676   12.42%
    660    52       59.0590    83       56.0000       61.4613    31863    9.75%

GUB cover cuts applied:  3
Clique cuts applied:  31
Cover cuts applied:  5
Implied bound cuts applied:  37
Flow cuts applied:  4
Mixed integer rounding cuts applied:  38
Zero-half cuts applied:  26
Lift and project cuts applied:  8
Gomory fractional cuts applied:  6

Root node processing (before b&c):
  Real time             =    0.25 sec. (238.35 ticks)
Sequential b&c:
  Real time             =    2.92 sec. (3210.55 ticks)
                          ------------
Total (root+branch&cut) =    3.17 sec. (3448.90 ticks)

Solution pool: 5 solutions saved.

MIP - Integer optimal solution:  Objective =  5.6000000000e+01
Solution time =    3.17 sec.  Iterations = 35707  Nodes = 788
Deterministic time = 3448.91 ticks  (1087.45 ticks/sec)


Incumbent solution
Variable Name           Solution Value
F                            56.000000
y50                           1.000000
y54                           1.000000
y57                           1.000000
y84                           1.000000
y97                           1.000000
y103                          1.000000
y111                          1.000000
y128                          1.000000
y166                          1.000000
x38x50x1                      1.000000
x38x103x1                     1.000000
x23x166x2                     1.000000
x176x166x2                    1.000000
x23x103x3                     1.000000
x114x84x3                     2.000000
x176x50x3                     1.000000
x50x57x1                      1.000000
x50x128x3                     1.000000
x84x54x3                      2.000000
x54x111x3                     2.000000
x57x0x1                       1.000000
x103x57x3                     1.000000
x57x0x3                       1.000000
x166x97x2                     2.000000
x97x0x2                       2.000000
x103x128x1                    1.000000
x111x0x3                      2.000000
x128x0x1                      1.000000
x128x0x3                      1.000000
s23                           5.878703
s2                            6.730000
s3                            8.030000
s10                           6.770000
s13                           6.760000
s39                           7.940000
s50                           7.620288
s51                           9.090000
s54                           8.113432
z23z54z3                      1.000000
s57                           9.170000
s61                           8.030000
z23z61z2                      1.000000
s66                           7.361555
s74                           9.180000
z23z74z3                      1.000000
s77                           8.000000
s94                           6.710000
s97                           9.310000
z23z97z2                      1.000000
s102                          9.180000
s103                          7.632153
z23z103z3                     1.000000
s104                          7.110000
s111                          9.170000
z23z111z3                     1.000000
s121                          7.170000
s124                          9.020000
s128                          9.160000
s136                          7.030000
s147                          6.570000
s150                          9.060000
z23z150z2                     1.000000
s156                          6.840000
s166                          8.265278
z23z166z2                     1.000000
s169                          9.000000
z23z169z3                     1.000000
s177                          9.080000
s38                           5.526580
s8                            6.750000
z38z50z1                      1.000000
s98                           6.010000
z38z103z1                     1.000000
s125                          6.980000
s158                          7.110000
z38z158z1                     1.000000
s163                          6.000000
s170                          6.000000
s49                           6.000000
z49z97z2                      1.000000
s72                           6.000000
s100                          6.000000
s108                          6.000000
s155                          6.000000
s114                          4.953617
s16                           6.000000
s22                           6.000000
z114z54z3                     1.000000
z114z74z3                     1.000000
s84                           6.474878
z114z84z3                     1.000000
z114z111z3                    1.000000
z114z121z3                    1.000000
s135                          6.000000
s142                          6.000000
z114z169z3                    1.000000
s134                          6.000000
z163z74z3                     1.000000
z163z111z3                    1.000000
s176                          5.555974
z176z50z3                     1.000000
z176z54z3                     1.000000
z176z61z2                     1.000000
z176z74z3                     1.000000
z176z97z2                     1.000000
z176z111z3                    1.000000
z176z121z3                    1.000000
z176z150z2                    1.000000
z176z166z2                    1.000000
z176z169z3                    1.000000
s5                            6.000000
z13z74z3                      1.000000
z13z97z2                      1.000000
z13z111z3                     1.000000
s34                           6.000000
z50z57z1                      1.000000
z50z128z3                     1.000000
s52                           6.000000
z54z111z3                     1.000000
z61z150z2                     1.000000
z66z97z2                      1.000000
s68                           6.000000
z84z54z3                      1.000000
z84z74z3                      1.000000
z84z111z3                     1.000000
z94z97z2                      1.000000
z94z166z2                     1.000000
z98z97z2                      1.000000
z100z97z2                     1.000000
z103z57z3                     1.000000
z103z128z1                    1.000000
z108z97z2                     1.000000
s112                          6.000000
z142z74z3                     1.000000
z142z111z3                    1.000000
z147z74z3                     1.000000
z147z111z3                    1.000000
z155z74z3                     1.000000
z155z97z2                     1.000000
z155z111z3                    1.000000
z156z97z2                     1.000000
s165                          6.000000
z166z97z2                     1.000000
All other variables in the range 1-2136 are 0.
